unsat
(define-fun f ((x (_ BitVec 64))) (_ BitVec 64) (let ((_let_1 (bvnot x))) (im (bvand #b0000000000000000000000000000000000000000000000000000000000000001 _let_1) (shesh (smol (shesh _let_1))) (bvxor #b0000000000000000000000000000000000000000000000000000000000000001 (shesh x)))))
0.49user 0.01system 0:00.50elapsed 99%CPU (0avgtext+0avgdata 34896maxresident)k
0inputs+8outputs (0major+3350minor)pagefaults 0swaps
